c defined variables: 19 20 21 22 23 24 25 26 27 28 29 30 31 32 33 34 35 36 37 40 41 42 43 44 45 46 47 48 49 50 51 52 53 54 55 56 57 60 63 64 65 66 67 68 69 70 71 72 73 74 75 76 77 78 79 80 81 82 83 84 85 86 87 88 89 90 91 92 93 94 95 96 97 98 99 100 101 102 103 104 105 106 107 108 109 110 111 112 113 
p cnf 483 711
a 4 5 6 7 8 9 10 11 12 13 14 15 16 0
e 38 39 58 59 61 62 19 20 21 22 23 24 25 26 27 28 29 30 31 32 33 34 35 36 37 40 41 42 43 44 45 46 47 48 49 50 51 52 53 54 55 56 57 60 63 64 65 66 67 68 69 70 71 72 73 74 75 76 77 78 79 80 81 82 83 84 85 86 87 88 89 90 91 92 93 94 95 96 97 98 99 100 101 102 103 104 105 106 107 108 109 110 111 112 113 401 402 403 404 405 406 407 408 409 410 411 412 413 414 415 416 417 418 419 420 421 422 423 424 425 426 427 428 429 430 431 432 433 434 435 436 437 438 439 440 441 442 443 444 445 446 447 448 449 450 451 452 453 454 455 456 457 458 459 460 461 462 463 464 465 466 467 468 469 470 471 472 473 474 475 476 477 478 479 480 481 482 483 0
d 1 4 5 6 7 8 9 10 11 0
d 2 4 5 6 7 8 9 10 11 0
d 3 4 5 6 7 8 9 10 11 0
d 17 7 8 9 10 11 0
d 18 12 13 14 15 16 0
402 -19 0
-402 19 0
403 -20 0
-403 20 0
404 -21 0
-404 21 0
405 -22 0
-405 22 0
406 -23 0
-406 23 0
407 -24 0
-407 24 0
408 -25 0
-408 25 0
409 -26 0
-409 26 0
410 -27 0
-410 27 0
411 -28 0
-411 28 0
412 -29 0
-412 29 0
413 -30 0
-413 30 0
414 -31 0
-414 31 0
415 -32 0
-415 32 0
416 -33 0
-416 33 0
417 -34 0
-417 34 0
418 -35 0
-418 35 0
419 -36 0
-419 36 0
420 -37 0
-420 37 0
421 -40 0
-421 40 0
-401 -41 0
401 41 0
422 -42 0
-422 42 0
423 -43 0
-423 43 0
424 -44 0
-424 44 0
425 -45 0
-425 45 0
426 -46 0
-426 46 0
-427 -47 0
427 47 0
428 -48 0
-428 48 0
429 -49 0
-429 49 0
430 -50 0
-430 50 0
431 -51 0
-431 51 0
-432 -52 0
432 52 0
433 -53 0
-433 53 0
434 -54 0
-434 54 0
435 -55 0
-435 55 0
436 -56 0
-436 56 0
437 -57 0
-437 57 0
438 -60 0
-438 60 0
439 -63 0
-439 63 0
440 -64 0
-440 64 0
441 -65 0
-441 65 0
442 -66 0
-442 66 0
443 -67 0
-443 67 0
444 -68 0
-444 68 0
445 -69 0
-445 69 0
-446 -70 0
446 70 0
447 -71 0
-447 71 0
448 -72 0
-448 72 0
449 -73 0
-449 73 0
450 -74 0
-450 74 0
451 -75 0
-451 75 0
452 -76 0
-452 76 0
453 -77 0
-453 77 0
454 -78 0
-454 78 0
455 -79 0
-455 79 0
456 -80 0
-456 80 0
457 -81 0
-457 81 0
458 -82 0
-458 82 0
459 -83 0
-459 83 0
460 -84 0
-460 84 0
461 -85 0
-461 85 0
462 -86 0
-462 86 0
463 -87 0
-463 87 0
464 -88 0
-464 88 0
465 -89 0
-465 89 0
466 -90 0
-466 90 0
467 -91 0
-467 91 0
468 -92 0
-468 92 0
469 -93 0
-469 93 0
470 -94 0
-470 94 0
471 -95 0
-471 95 0
472 -96 0
-472 96 0
473 -97 0
-473 97 0
474 -98 0
-474 98 0
475 -99 0
-475 99 0
476 -100 0
-476 100 0
-401 -101 0
401 101 0
477 -102 0
-477 102 0
478 -103 0
-478 103 0
479 -104 0
-479 104 0
-401 -105 0
401 105 0
480 -106 0
-480 106 0
481 -107 0
-481 107 0
482 -108 0
-482 108 0
483 -109 0
-483 109 0
-401 -110 0
401 110 0
401 -111 0
-401 111 0
401 -112 0
-401 112 0
401 -113 0
-401 113 0
-19 -16 0
-19 11 0
19 16 -11 0
-20 16 0
-20 -11 0
20 -16 11 0
-21 -19 0
-21 -20 0
21 19 20 0
-22 -12 0
-22 7 0
22 12 -7 0
-23 12 0
-23 -7 0
23 -12 7 0
-24 -22 0
-24 -23 0
24 22 23 0
-25 -13 0
-25 8 0
25 13 -8 0
-26 13 0
-26 -8 0
26 -13 8 0
-27 -25 0
-27 -26 0
27 25 26 0
-28 24 0
-28 27 0
28 -24 -27 0
-29 -14 0
-29 9 0
29 14 -9 0
-30 14 0
-30 -9 0
30 -14 9 0
-31 -29 0
-31 -30 0
31 29 30 0
-32 -15 0
-32 10 0
32 15 -10 0
-33 15 0
-33 -10 0
33 -15 10 0
-34 -32 0
-34 -33 0
34 32 33 0
-35 31 0
-35 34 0
35 -31 -34 0
-36 28 0
-36 35 0
36 -28 -35 0
-37 21 0
-37 36 0
37 -21 -36 0
-38 18 0
-38 -17 0
38 -18 17 0
-39 -18 0
-39 17 0
39 18 -17 0
-40 -38 0
-40 -39 0
40 38 39 0
-41 37 0
-41 -40 0
41 -37 40 0
-42 11 0
-42 7 0
42 -11 -7 0
-43 8 0
-43 7 0
43 -8 -7 0
-44 4 0
-44 43 0
44 -4 -43 0
-45 9 0
-45 7 0
45 -9 -7 0
-46 -5 0
-46 -45 0
46 5 45 0
47 44 0
47 -46 0
-47 -44 46 0
-48 5 0
-48 45 0
48 -5 -45 0
-49 47 0
-49 -48 0
49 -47 48 0
-50 10 0
-50 7 0
50 -10 -7 0
-51 -6 0
-51 -50 0
51 6 50 0
52 -49 0
52 -51 0
-52 49 51 0
-53 6 0
-53 50 0
53 -6 -50 0
-54 52 0
-54 -53 0
54 -52 53 0
-55 42 0
-55 54 0
55 -42 -54 0
-56 -42 0
-56 -54 0
56 42 54 0
-57 -55 0
-57 -56 0
57 55 56 0
-58 -2 0
-58 1 0
58 2 -1 0
-59 2 0
-59 -1 0
59 -2 1 0
-60 -58 0
-60 -59 0
60 58 59 0
-61 -3 0
-61 -60 0
61 3 60 0
-62 3 0
-62 60 0
62 -3 -60 0
-63 -61 0
-63 -62 0
63 61 62 0
-64 42 0
-64 -63 0
64 -42 63 0
-65 -57 0
-65 -64 0
65 57 64 0
-66 -16 0
-66 65 0
66 16 -65 0
-67 16 0
-67 -65 0
67 -16 65 0
-68 -66 0
-68 -67 0
68 66 67 0
-69 -4 0
-69 -43 0
69 4 43 0
70 -44 0
70 -69 0
-70 44 69 0
-71 -64 0
-71 -70 0
71 64 70 0
-72 43 0
-72 64 0
72 -43 -64 0
-73 -71 0
-73 -72 0
73 71 72 0
-74 -13 0
-74 -73 0
74 13 73 0
-75 13 0
-75 73 0
75 -13 -73 0
-76 -74 0
-76 -75 0
76 74 75 0
-77 12 0
-77 76 0
77 -12 -76 0
-78 -48 0
-78 -46 0
78 48 46 0
-79 44 0
-79 -78 0
79 -44 78 0
-80 -44 0
-80 78 0
80 44 -78 0
-81 -79 0
-81 -80 0
81 79 80 0
-82 -64 0
-82 -81 0
82 64 81 0
-83 45 0
-83 64 0
83 -45 -64 0
-84 -82 0
-84 -83 0
84 82 83 0
-85 -14 0
-85 -84 0
85 14 84 0
-86 14 0
-86 84 0
86 -14 -84 0
-87 -85 0
-87 -86 0
87 85 86 0
-88 -49 0
-88 53 0
88 49 -53 0
-89 49 0
-89 51 0
89 -49 -51 0
-90 54 0
-90 -89 0
90 -54 89 0
-91 -88 0
-91 -90 0
91 88 90 0
-92 -64 0
-92 -91 0
92 64 91 0
-93 50 0
-93 64 0
93 -50 -64 0
-94 -92 0
-94 -93 0
94 92 93 0
-95 -15 0
-95 -94 0
95 15 94 0
-96 15 0
-96 94 0
96 -15 -94 0
-97 -95 0
-97 -96 0
97 95 96 0
-98 87 0
-98 97 0
98 -87 -97 0
-99 77 0
-99 98 0
99 -77 -98 0
-100 68 0
-100 99 0
100 -68 -99 0
-101 100 0
-101 39 0
101 -100 -39 0
-102 8 0
-102 45 0
102 -8 -45 0
-103 102 0
-103 50 0
103 -102 -50 0
-104 103 0
-104 42 0
104 -103 -42 0
-105 17 0
-105 104 0
105 -17 -104 0
-106 -8 0
-106 -7 0
106 8 7 0
-107 -10 0
-107 -9 0
107 10 9 0
-108 106 0
-108 107 0
108 -106 -107 0
-109 -11 0
-109 108 0
109 11 -108 0
-110 -17 0
-110 109 0
110 17 -109 0
-111 -105 0
-111 -110 0
111 105 110 0
-112 -101 0
-112 111 0
112 101 -111 0
-113 -41 0
-113 112 0
113 41 -112 0
113 0
401 0
11 -402 0
-16 -402 0
-11 16 402 0
-11 -403 0
16 -403 0
11 -16 403 0
-19 -404 0
-20 -404 0
19 20 404 0
7 -405 0
-12 -405 0
-7 12 405 0
-7 -406 0
12 -406 0
7 -12 406 0
-22 -407 0
-23 -407 0
22 23 407 0
8 -408 0
-13 -408 0
-8 13 408 0
-8 -409 0
13 -409 0
8 -13 409 0
-25 -410 0
-26 -410 0
25 26 410 0
24 -411 0
27 -411 0
-24 -27 411 0
9 -412 0
-14 -412 0
-9 14 412 0
-9 -413 0
14 -413 0
9 -14 413 0
-29 -414 0
-30 -414 0
29 30 414 0
10 -415 0
-15 -415 0
-10 15 415 0
-10 -416 0
15 -416 0
10 -15 416 0
-32 -417 0
-33 -417 0
32 33 417 0
31 -418 0
34 -418 0
-31 -34 418 0
28 -419 0
35 -419 0
-28 -35 419 0
21 -420 0
36 -420 0
-21 -36 420 0
-38 -421 0
-39 -421 0
38 39 421 0
7 -422 0
11 -422 0
-7 -11 422 0
7 -423 0
8 -423 0
-7 -8 423 0
4 -424 0
43 -424 0
-4 -43 424 0
7 -425 0
9 -425 0
-7 -9 425 0
-5 -426 0
-45 -426 0
5 45 426 0
44 -427 0
-46 -427 0
-44 46 427 0
5 -428 0
45 -428 0
-5 -45 428 0
47 -429 0
-48 -429 0
-47 48 429 0
7 -430 0
10 -430 0
-7 -10 430 0
-6 -431 0
-50 -431 0
6 50 431 0
-49 -432 0
-51 -432 0
49 51 432 0
6 -433 0
50 -433 0
-6 -50 433 0
52 -434 0
-53 -434 0
-52 53 434 0
42 -435 0
54 -435 0
-42 -54 435 0
-42 -436 0
-54 -436 0
42 54 436 0
-55 -437 0
-56 -437 0
55 56 437 0
-58 -438 0
-59 -438 0
58 59 438 0
-61 -439 0
-62 -439 0
61 62 439 0
42 -440 0
-63 -440 0
-42 63 440 0
-57 -441 0
-64 -441 0
57 64 441 0
-16 -442 0
65 -442 0
16 -65 442 0
16 -443 0
-65 -443 0
-16 65 443 0
-66 -444 0
-67 -444 0
66 67 444 0
-4 -445 0
-43 -445 0
4 43 445 0
-44 -446 0
-69 -446 0
44 69 446 0
-64 -447 0
-70 -447 0
64 70 447 0
43 -448 0
64 -448 0
-43 -64 448 0
-71 -449 0
-72 -449 0
71 72 449 0
-13 -450 0
-73 -450 0
13 73 450 0
13 -451 0
73 -451 0
-13 -73 451 0
-74 -452 0
-75 -452 0
74 75 452 0
12 -453 0
76 -453 0
-12 -76 453 0
-46 -454 0
-48 -454 0
46 48 454 0
44 -455 0
-78 -455 0
-44 78 455 0
-44 -456 0
78 -456 0
44 -78 456 0
-79 -457 0
-80 -457 0
79 80 457 0
-64 -458 0
-81 -458 0
64 81 458 0
45 -459 0
64 -459 0
-45 -64 459 0
-82 -460 0
-83 -460 0
82 83 460 0
-14 -461 0
-84 -461 0
14 84 461 0
14 -462 0
84 -462 0
-14 -84 462 0
-85 -463 0
-86 -463 0
85 86 463 0
-49 -464 0
53 -464 0
49 -53 464 0
49 -465 0
51 -465 0
-49 -51 465 0
54 -466 0
-89 -466 0
-54 89 466 0
-88 -467 0
-90 -467 0
88 90 467 0
-64 -468 0
-91 -468 0
64 91 468 0
50 -469 0
64 -469 0
-50 -64 469 0
-92 -470 0
-93 -470 0
92 93 470 0
-15 -471 0
-94 -471 0
15 94 471 0
15 -472 0
94 -472 0
-15 -94 472 0
-95 -473 0
-96 -473 0
95 96 473 0
87 -474 0
97 -474 0
-87 -97 474 0
77 -475 0
98 -475 0
-77 -98 475 0
68 -476 0
99 -476 0
-68 -99 476 0
8 -477 0
45 -477 0
-8 -45 477 0
50 -478 0
102 -478 0
-50 -102 478 0
42 -479 0
103 -479 0
-42 -103 479 0
-7 -480 0
-8 -480 0
7 8 480 0
-9 -481 0
-10 -481 0
9 10 481 0
106 -482 0
107 -482 0
-106 -107 482 0
-11 -483 0
108 -483 0
11 -108 483 0
